NAME : P-n50-k8.436509.tour
COMMENT : Length = 436509
COMMENT : Found by LKH [Keld Helsgaun] Sun Dec 17 22:34:35 2017
TYPE : TOUR
DIMENSION : 57
TOUR_SECTION
1
31
3
29
23
2
43
55
18
33
45
4
50
24
44
42
54
35
47
9
36
20
15
57
5
46
30
49
6
38
52
13
41
10
40
32
53
28
14
16
21
37
48
22
56
27
8
12
39
11
51
7
34
17
25
19
26
-1
EOF
